152 146045
1 35 36 16 34 37 33 32 42 64 63 83 86 84 85 108 109 110 107 106 87 82 88 89 80 69 70 46 52 53 71 72 79 91 96 116 123 128 127 151 150 152 126 125 124 93 94 77 74 76 50 49 48 75 51 78 115 120 133 134 146 145 144 135 136 119 114 113 100 68 56 55 44 39 24 25 26 45 54 90 99 98 97 121 132 131 147 149 148 130 129 122 95 92 73 47 31 30 29 14 38 28 27 43 57 65 66 67 81 101 102 103 112 111 104 118 137 138 143 142 141 139 140 117 105 62 59 58 19 21 20 7 10 8 9 17 18 40 41 61 60 23 22 11 6 12 5 13 4 3 15 2 
